
Gurobi 7.5.2 (mac64) logging started Wed 23 May 17:58:50 2018

Academic license - for non-commercial use only
Optimize a model with 21 rows, 20 columns and 50 nonzeros
Model has 55 quadratic objective terms
Variable types: 10 continuous, 10 integer (10 binary)
Coefficient statistics:
  Matrix range     [1e+00, 2e+00]
  Objective range  [2e+01, 2e+02]
  QObjective range [2e+00, 3e+02]
  Bounds range     [1e+00, 2e+00]
  RHS range        [1e+00, 1e+00]

Loaded MIP start with objective -122.645

Presolve time: 0.01s
Presolved: 21 rows, 20 columns, 50 nonzeros
Presolved model has 55 quadratic objective terms
Variable types: 10 continuous, 10 integer (10 binary)

Root relaxation: objective -2.463984e+02, 40 iterations, 0.00 seconds

    Nodes    |    Current Node    |     Objective Bounds      |     Work
 Expl Unexpl |  Obj  Depth IntInf | Incumbent    BestBd   Gap | It/Node Time

     0     0 -246.39842    0    7 -122.64460 -246.39842   101%     -    0s
     0     0     cutoff    0      -122.64460 -122.64460  0.00%     -    0s

Explored 1 nodes (45 simplex iterations) in 0.02 seconds
Thread count was 8 (of 8 available processors)

Solution count 1: -122.645 

Optimal solution found (tolerance 1.00e-04)
Best objective -1.226445961671e+02, best bound -1.226445961671e+02, gap 0.0000%

Gurobi 7.5.2 (mac64) logging started Wed May 23 17:58:50 2018

Academic license - for non-commercial use only
Optimize a model with 21 rows, 20 columns and 50 nonzeros
Model has 55 quadratic objective terms
Variable types: 10 continuous, 10 integer (10 binary)
Coefficient statistics:
  Matrix range     [1e+00, 2e+00]
  Objective range  [2e+01, 2e+02]
  QObjective range [2e+00, 3e+02]
  Bounds range     [1e+00, 2e+00]
  RHS range        [2e+00, 2e+00]

Loaded MIP start with objective -171.871

Presolve time: 0.00s
Presolved: 21 rows, 20 columns, 50 nonzeros
Presolved model has 55 quadratic objective terms
Variable types: 10 continuous, 10 integer (10 binary)

Root relaxation: objective -3.393903e+02, 41 iterations, 0.00 seconds

    Nodes    |    Current Node    |     Objective Bounds      |     Work
 Expl Unexpl |  Obj  Depth IntInf | Incumbent    BestBd   Gap | It/Node Time

     0     0 -339.39027    0    8 -171.87144 -339.39027  97.5%     -    0s
     0     2 -339.39027    0    8 -171.87144 -339.39027  97.5%     -    0s

Explored 14 nodes (100 simplex iterations) in 0.01 seconds
Thread count was 8 (of 8 available processors)

Solution count 1: -171.871 

Optimal solution found (tolerance 1.00e-04)
Best objective -1.718714447049e+02, best bound -1.718714447049e+02, gap 0.0000%

Gurobi 7.5.2 (mac64) logging started Wed May 23 17:58:50 2018

Academic license - for non-commercial use only
Optimize a model with 21 rows, 20 columns and 50 nonzeros
Model has 55 quadratic objective terms
Variable types: 10 continuous, 10 integer (10 binary)
Coefficient statistics:
  Matrix range     [1e+00, 2e+00]
  Objective range  [2e+01, 2e+02]
  QObjective range [2e+00, 3e+02]
  Bounds range     [1e+00, 2e+00]
  RHS range        [3e+00, 3e+00]

Loaded MIP start with objective -219.834

Presolve time: 0.00s
Presolved: 21 rows, 20 columns, 50 nonzeros
Presolved model has 55 quadratic objective terms
Variable types: 10 continuous, 10 integer (10 binary)

Root relaxation: objective -3.470597e+02, 38 iterations, 0.00 seconds

    Nodes    |    Current Node    |     Objective Bounds      |     Work
 Expl Unexpl |  Obj  Depth IntInf | Incumbent    BestBd   Gap | It/Node Time

     0     0 -347.05969    0   10 -219.83430 -347.05969  57.9%     -    0s
     0     0 -347.05969    0    9 -219.83430 -347.05969  57.9%     -    0s
     0     2 -347.05969    0    9 -219.83430 -347.05969  57.9%     -    0s

Explored 28 nodes (138 simplex iterations) in 0.00 seconds
Thread count was 8 (of 8 available processors)

Solution count 1: -219.834 

Optimal solution found (tolerance 1.00e-04)
Best objective -2.198342971685e+02, best bound -2.198342971685e+02, gap 0.0000%

Gurobi 7.5.2 (mac64) logging started Wed May 23 17:58:50 2018

Academic license - for non-commercial use only
Optimize a model with 21 rows, 20 columns and 50 nonzeros
Model has 55 quadratic objective terms
Variable types: 10 continuous, 10 integer (10 binary)
Coefficient statistics:
  Matrix range     [1e+00, 2e+00]
  Objective range  [2e+01, 2e+02]
  QObjective range [2e+00, 3e+02]
  Bounds range     [1e+00, 2e+00]
  RHS range        [4e+00, 4e+00]

Loaded MIP start with objective -261.125

Presolve time: 0.00s
Presolved: 21 rows, 20 columns, 50 nonzeros
Presolved model has 55 quadratic objective terms
Variable types: 10 continuous, 10 integer (10 binary)

Root relaxation: objective -3.470597e+02, 40 iterations, 0.00 seconds

    Nodes    |    Current Node    |     Objective Bounds      |     Work
 Expl Unexpl |  Obj  Depth IntInf | Incumbent    BestBd   Gap | It/Node Time

     0     0 -347.05969    0   10 -261.12503 -347.05969  32.9%     -    0s
     0     0 -347.05969    0    9 -261.12503 -347.05969  32.9%     -    0s
     0     2 -347.05969    0    9 -261.12503 -347.05969  32.9%     -    0s

Explored 20 nodes (121 simplex iterations) in 0.00 seconds
Thread count was 8 (of 8 available processors)

Solution count 1: -261.125 

Optimal solution found (tolerance 1.00e-04)
Best objective -2.611250337373e+02, best bound -2.611250337373e+02, gap 0.0000%

Gurobi 7.5.2 (mac64) logging started Wed May 23 17:58:50 2018

Academic license - for non-commercial use only
Optimize a model with 21 rows, 20 columns and 50 nonzeros
Model has 55 quadratic objective terms
Variable types: 10 continuous, 10 integer (10 binary)
Coefficient statistics:
  Matrix range     [1e+00, 3e+00]
  Objective range  [2e+01, 2e+02]
  QObjective range [2e+00, 3e+02]
  Bounds range     [1e+00, 3e+00]
  RHS range        [5e+00, 5e+00]

Loaded MIP start with objective -288.97

Presolve time: 0.00s
Presolved: 21 rows, 20 columns, 50 nonzeros
Presolved model has 55 quadratic objective terms
Variable types: 10 continuous, 10 integer (10 binary)

Root relaxation: objective -3.470597e+02, 40 iterations, 0.00 seconds

    Nodes    |    Current Node    |     Objective Bounds      |     Work
 Expl Unexpl |  Obj  Depth IntInf | Incumbent    BestBd   Gap | It/Node Time

     0     0 -347.05969    0   10 -288.96989 -347.05969  20.1%     -    0s
     0     0 -347.05969    0    8 -288.96989 -347.05969  20.1%     -    0s
     0     2 -347.05969    0    8 -288.96989 -347.05969  20.1%     -    0s
*   11     1               4    -293.4471451 -317.78130  8.29%   3.3    0s

Explored 15 nodes (88 simplex iterations) in 0.00 seconds
Thread count was 8 (of 8 available processors)

Solution count 2: -293.447 -288.97 

Optimal solution found (tolerance 1.00e-04)
Best objective -2.934471451302e+02, best bound -2.934471451302e+02, gap 0.0000%
